p cnf 8 40
-7 5 -5 0
4 7 6 0
-2 -7 -3 0
8 3 -4 0
2 3 -6 0
-5 2 -4 0
5 -8 -3 0
-3 2 -6 0
-8 5 -3 0
-7 -3 4 0
1 -7 -6 0
6 -4 -4 0
1 2 -4 0
-7 8 -2 0
-8 6 8 0
-7 -5 3 0
7 -3 -6 0
-5 6 -5 0
-5 -1 6 0
4 8 -3 0
2 5 8 0
-5 1 -2 0
-2 6 -3 0
-7 5 3 0
1 2 -8 0
-6 5 6 0
8 -1 -2 0
6 -3 1 0
3 3 -3 0
-3 -5 -8 0
7 -3 -2 0
-2 5 3 0
-1 -2 -4 0
-5 -8 1 0
2 -2 8 0
-3 -5 3 0
-1 -7 -6 0
5 -8 -4 0
-8 -6 3 0
-5 -8 1 0
